50, 918525
4117, 12727
4239, 12684
4194, 12844
4304, 12320
4240, 12248
4163, 12494
4291, 12599
4102, 13174
4210, 13243
4104, 12514
4157, 12620
4247, 12512
4232, 13113
4291, 12588
4236, 12588
4118, 12661
4077, 12964
4187, 12952
4034, 12476
4037, 12994
4072, 12737
4302, 13142
4318, 12664
4036, 12446
4186, 13118
200950, 896304
196931, 885274
192912, 873051
188893, 861610
184874, 849538
180855, 837643
176836, 826175
172817, 814923
168798, 802756
164779, 790679
160760, 778521
156741, 766344
152722, 754552
148703, 742346
144684, 730401
140665, 718696
136646, 706482
132627, 695280
128608, 684106
124589, 672097
120570, 659919
116551, 647733
112532, 635939
108513, 624121
104494, 612272
